proyfinal/src/viki/013/experimentInOfficeAgust.take6.output/8228662b-f76b-4c0b-b783-dba7f024e87b.als.out
Reading from standard input... Use '--help' for help.
============================[ Problem Statistics ]=============================
|                                                                             |
|  Number of variables:         87638                                         |
|  Number of clauses:          161767                                         |
|  Parse time:                   0.03 s                                       |
|                                                                             |
============================[ Search Statistics ]==============================
| Conflicts |          ORIGINAL         |          LEARNT          | Progress |
|           |    Vars  Clauses Literals |    Limit  Clauses Lit/Cl |          |
===============================================================================
|       100 |   63224   108203   270472 |    39674      100     10 | 27.858 % |
|       250 |   63224   108203   270472 |    43641      250     42 | 27.858 % |
|       475 |   63204   108119   270279 |    48006      474     60 | 27.881 % |
|       812 |   63204   108119   270279 |    52806      811     62 | 27.881 % |
|      1318 |   63204   108119   270279 |    58087     1317     88 | 27.881 % |
|      2077 |   63203   108075   270189 |    63896     2073     82 | 27.882 % |
|      3216 |   63203   108075   270189 |    70285     3212     84 | 27.882 % |
|      4924 |   63203   108075   270189 |    77314     4920     94 | 27.882 % |
|      7486 |   63203   108075   270189 |    85045     7482     90 | 27.882 % |
|     11330 |   63203   108075   270189 |    93550    11326     90 | 27.882 % |
===============================================================================
restarts              : 62
conflicts             : 15513          (6104 /sec)
decisions             : 51927          (0.00 % random) (20433 /sec)
propagations          : 24610398       (9683872 /sec)
conflict literals     : 1244631        (52.59 % deleted)
Memory used           : 34.61 MB
CPU time              : 2.54138 s

INDETERMINATE
